c description: Random 3-CNF over 14 variables and 28 clauses
p cnf 14 28
3 5 9 0
4 -8 13 0
3 -8 10 0
10 -11 14 0
-4 10 -13 0
1 -9 -11 0
4 11 -12 0
9 10 -13 0
2 8 13 0
-8 -9 14 0
5 7 -10 0
3 4 -10 0
-9 -10 -13 0
2 3 13 0
2 -3 9 0
-5 6 -9 0
-5 -10 -13 0
-4 5 -6 0
-3 6 -13 0
-5 -11 -14 0
-7 11 -12 0
3 5 8 0
4 -13 14 0
-2 -4 12 0
5 7 -9 0
-4 -7 13 0
-4 -10 -11 0
4 11 12 0